1034
7
141060
4050
 0 1 1 199 200  18 0 95 37 38 39 42 41 44 46 49 47 50 51 48 45 43 40 0
 0 1 1 132 199  18 0 88 2 1 3 4 5 6 7 9 10 11 15 14 13 12 8 0
 0 1 1 65 188  20 0 82 111 86 85 89 91 90 114 18 118 108 83 113 117 84 112 81 119 0
 0 1 1 207 197  23 0 109 17 16 19 25 22 24 27 30 33 34 36 29 32 35 31 28 23 26 20 21 0
 0 1 1 74 192  19 0 120 105 106 102 101 99 103 116 98 110 115 97 94 93 96 92 87 0
 0 1 1 213 199  18 0 104 52 54 57 59 65 61 62 64 66 63 60 56 58 55 53 0
 0 1 1 144 200  18 0 100 68 73 76 77 79 80 78 72 75 74 71 70 69 67 107 0
